PREC=A
ENCUT=650
ISYM=0
ALGO=Fast
EDIFF=1e-6
LREAL=AUTO
NPAR=4
KPAR=1
NELM=120
NELMIN=4
MDALGO = 2 #Nose-Hoover Thermostat for NVT when consider SMASS
ISIF=2
ISMEAR=0
SIGMA=0.20000
IBRION=0
POTIM=2
NSW=0
#TEBEG = 50 #temp=50
LWAVE=F
LCHARG=F
PSTRESS=0
KSPACING=0.2
KGAMMA=.FALSE.
