PREC=A
NPAR=4
ENCUT=650
ALGO=Fast
EDIFF=1e-5
LREAL=AUTO
NELM=120
NELMIN=4
ISIF=2
ISMEAR=1
SIGMA=0.20000
IBRION=-1
POTIM=0
NSW=0
LWAVE=F
LCHARG=F
KSPACING=0.2
KGAMMA=.FALSE.
