Cu-Copper FCC mp-30
1.0
        3.5799999237         0.0000000000         0.0000000000
        0.0000000000         3.5799999237         0.0000000000
        0.0000000000         0.0000000000         3.5799999237
   Cu
    4
Direct
     0.000000000         0.000000000         0.000000000
     0.000000000         0.500000000         0.500000000
     0.500000000         0.000000000         0.500000000
     0.500000000         0.500000000         0.000000000
