Cu 
 1.0000000000000000
     7.1599998474000000    0.0000000000000000    0.0000000000000000
     0.0000000000000000    7.1599998474000000    0.0000000000000000
     0.0000000000000000    0.0000000000000000    7.1599998474000000
 Cu 
  32
Cartesian
  0.0000000000000000  0.0000000000000000  0.0000000000000000
  0.0000000000000000  1.7899999618500000  1.7899999618500000
  1.7899999618500000  0.0000000000000000  1.7899999618500000
  1.7899999618500000  1.7899999618500000  0.0000000000000000
  0.0000000000000000  0.0000000000000000  3.5799999236999995
  0.0000000000000000  1.7899999618500000  5.3699998855499995
  1.7899999618500000  0.0000000000000000  5.3699998855499995
  1.7899999618500000  1.7899999618500000  3.5799999236999995
  0.0000000000000000  3.5799999236999995  0.0000000000000000
  0.0000000000000000  5.3699998855499995  1.7899999618500000
  1.7899999618500000  3.5799999236999995  1.7899999618500000
  1.7899999618500000  5.3699998855499995  0.0000000000000000
  0.0000000000000000  3.5799999236999995  3.5799999236999995
  0.0000000000000000  5.3699998855499995  5.3699998855499995
  1.7899999618500000  3.5799999236999995  5.3699998855499995
  1.7899999618500000  5.3699998855499995  3.5799999236999995
  3.5799999236999995  0.0000000000000000  0.0000000000000000
  3.5799999236999995  1.7899999618500000  1.7899999618500000
  5.3699998855499995  0.0000000000000000  1.7899999618500000
  5.3699998855499995  1.7899999618500000  0.0000000000000000
  3.5799999236999995  0.0000000000000000  3.5799999236999995
  3.5799999236999995  1.7899999618500000  5.3699998855499995
  5.3699998855499995  0.0000000000000000  5.3699998855499995
  5.3699998855499995  1.7899999618500000  3.5799999236999995
  3.5799999236999995  3.5799999236999995  0.0000000000000000
  3.5799999236999995  5.3699998855499995  1.7899999618500000
  5.3699998855499995  3.5799999236999995  1.7899999618500000
  5.3699998855499995  5.3699998855499995  0.0000000000000000
  3.5799999236999995  3.5799999236999995  3.5799999236999995
  3.5799999236999995  5.3699998855499995  5.3699998855499995
  5.3699998855499995  3.5799999236999995  5.3699998855499995
  5.3699998855499995  5.3699998855499995  3.5799999236999995
