PREC = A
ISTART = 0
ICHARG = 2
ENCUT = 650
NELM = 120
NELMIN = 4
NELMDL = -5
EDIFF = 1e-06
LREAL = AUTO
ALGO = Fast 
IBRION = -1
ISIF = 2
ISYM = 0
NSW = 0
ISMEAR = 0
SIGMA = 0.1
LWAVE = False
LCHARG = False
KPAR = 4
NPAR = 1
KSPACING = 0.2
KGAMMA = F
PSTRESS = 0.0
