Cu2
1.0
        5.8029122353         0.0000000000         0.0000000000
        0.0000000000         5.8029122353         0.0000000000
        0.0000000000         0.0000000000         5.4489312172
   Cu
   16
Direct
     0.000000000         0.000000000         0.000000000
     0.000000000         0.000000000         0.500000000
     0.000000000         0.500000000         0.000000000
     0.000000000         0.500000000         0.500000000
     0.500000000         0.000000000         0.000000000
     0.500000000         0.000000000         0.500000000
     0.500000000         0.500000000         0.000000000
     0.500000000         0.500000000         0.500000000
     0.250000000         0.250000000         0.250000000
     0.250000000         0.250000000         0.750000000
     0.250000000         0.750000000         0.250000000
     0.250000000         0.750000000         0.750000000
     0.750000000         0.250000000         0.250000000
     0.750000000         0.250000000         0.750000000
     0.750000000         0.750000000         0.250000000
     0.750000000         0.750000000         0.750000000
