Cu4
1.0
        5.0615282059         0.0000000000         0.0000000000
       -2.5307646866         4.3834116713         0.0000000000
        0.0000000000         0.0000000000         8.2618150711
   Cu
   16
Direct
     0.000000000         0.000000000         0.000000000
     0.000000000         0.500000000         0.000000000
     0.500000000         0.000000000         0.000000000
     0.500000000         0.500000000         0.000000000
     0.166666672         0.333333343         0.250000000
     0.166666672         0.833333373         0.250000000
     0.666666687         0.333333343         0.250000000
     0.666666687         0.833333373         0.250000000
     0.000000000         0.000000000         0.500000000
     0.000000000         0.500000000         0.500000000
     0.500000000         0.000000000         0.500000000
     0.500000000         0.500000000         0.500000000
     0.333333343         0.166666672         0.750000000
     0.333333343         0.666666687         0.750000000
     0.833333373         0.166666672         0.750000000
     0.833333373         0.666666687         0.750000000
